	Costo	Nv	Tiempo
1	1031,9	5	18,3599
2	1529,12	11	39,4869
3	1972,57	8	72,6259
4	2372,49	12	163,336
5	3388,54	17	289,7909
6	976,03	8	18,063
7	1374,03	14	38,8909
8	1880,21	13	72,844
9	2302,76	20	162,0829
10	2821,69	25	290,808
11	2199,47	7	106,035
12	1573,67	10	70,2529
13	2420,06	13	106,02
14	1281,91	11	72,7219
